21 64 44 4 60 77 17 31 52 50 78 45 24 67 65 37 19 72 62 36 16 13 41 42 14 2 33 23 74 56 55 12 71 58 38 66 59 7 26 29 32 75 20 54 30 47 49 9 25 46 76 39 15 68 3 1 69 18 22 61 63 10 11 70 48 79 6 51 27 0 73 8 57 34 40 53 35 43 28 5